Route #1: 1 42 19 34 15 48 24 35 59 1
Route #2: 1 17 21 4 47 41 12 22 5 7 29 1
Route #3: 1 26 54 31 45 50 32 3 2 20 1
Route #4: 1 53 60 39 8 14 28 38 1
Route #5: 1 25 37 55 6 23 11 43 1
Route #6: 1 44 57 13 52 10 33 51 1
Route #7: 1 36 56 16 40 27 18 30 1
Route #8: 1 49 46 1
Route #9: 1 9 58 1
cost 1603.1350197315369
